Sb8 S12                                 
   1.00000000000000     
     4.1352675914139043    0.0000000143026710   -0.0000000149561723
     0.0000000397326131   10.5501710680217453    0.0126717555262888
     0.0000001156543837    0.0142721863688719   10.9555685923333481
   Sb   S    Se
     8     9     3
Direct
  0.5000000141276648  0.1700057354625287  0.7375456668620400
  0.0000000210205510  0.6735428480704928  0.2611207405063909
  0.0000000069678421  0.4534516098166099  0.5899086186041150
  0.4999999874730152  0.9534476550917991  0.4113074627430306
  0.0000000159818317  0.8314666250643178  0.7644173251210167
  0.4999999855962345  0.3368781686893148  0.2407707906053653
  0.4999999865034816  0.5388511717283277  0.9023158981150181
  0.0000000070771512  0.0330402427481168  0.0981162225329899
 -0.0000000116769625  0.0663385595015752  0.6392892312844087
  0.4999999579052914  0.5696463833193602  0.3616881859256685
  0.5000000214571375  0.3028883952491237  0.5375500460512703
  0.9999999940231418  0.8027432198197976  0.4620086474591018
  0.0000000503375603  0.3688212045937017  0.8029512000033562
  0.4999999338611581  0.8682950465509202  0.1984242464361163
  0.5000000305963276  0.9290331961488266  0.8671962258047673
  0.0000000207480380  0.4336683501969110  0.1364496724226807
  0.9999999933480886  0.6875461925037737  0.9587289115075631
  0.4999999977330711  0.1948840814233241  0.0316836441049233
  0.5000000080885550  0.6342000521780397  0.6794671459399423
  0.9999999788308066  0.1333313768431270  0.3190601739702181
 
