MA-Pb-I  Phonons/2015_MAPbI3/MAPbI3-Cubi
   1.00000000000000     
    17.4822735334851167    0.0345586626266937   -0.0394313741525757
    -0.1062790090636946   17.4823886284281187    0.0402354069942377
     0.1653782287749374   -0.1647134341431565   12.8346033385324301
   C    N    H    Pb   I    Cs
    14    14    84    16    49     2
Direct
  0.2263897834982323  0.0257911396791245  0.2312190702944270
  0.7196567688702353  0.5166366473742439  0.2247241675220249
  0.7449367514811737  0.5396013496898941  0.7349768677501728
  0.9819846527008680  0.7918327188941078  0.7099518563730374
  0.2084729775692542  0.0442903804845244  0.7380227698020200
  0.4766089222584106  0.2747766319662900  0.2048637556325807
  0.9544618834322018  0.2666713921440346  0.2801455402949538
  0.0111825366577292  0.3216615840008919  0.7360388796346202
  0.2168090027855931  0.5345470054384496  0.2391964152987011
  0.2180331400091697  0.5360175056721270  0.7456782148600737
  0.4743332139775337  0.7792881060590162  0.2050995116139725
  0.4753264450189794  0.7743095409717975  0.7085483439310677
  0.6956292962205374  0.0222232076712173  0.2474669104439283
  0.7089522826113444  0.0125731837403917  0.7260777168010745
  0.2770779747180511  0.9710897711540110  0.2835015469206125
  0.7784092983828171  0.4621045108478626  0.2593880637256140
  0.7855537484000864  0.4715659362384758  0.7734428544073554
  0.0253955110626083  0.7420092415940411  0.7799250765678223
  0.2538930142206452  0.9740728204018614  0.7525699090313192
  0.5147179257371731  0.2325940327282738  0.2888424336132577
  0.0124041527329988  0.2212647675998220  0.2226689602462614
  0.0036433936238185  0.2375033381999392  0.7320270111781483
  0.2704457842507209  0.4756169924462686  0.2757920547412595
  0.2726244242602570  0.4764732779586288  0.7767865947934265
  0.5157001302485679  0.7365352834984870  0.2856625432074387
  0.5278234293270009  0.7292288692712596  0.7728330691832993
  0.7704888623002075  0.9835440908695720  0.2531120072686839
  0.7707382224741341  0.9734048374143150  0.7822249499567177
  0.2355110205968300  0.0210724768324453  0.1475128757055336
  0.7124799570920874  0.5103375555413250  0.1411523959895415
  0.7631670218574228  0.5500747138001817  0.6550115463025949
  0.9974165473617111  0.7777114189792232  0.6298221709957841
  0.2211849919205299  0.0672651245301958  0.6613677819019799
  0.4983616277012893  0.2537478008039902  0.1303470068000193
  0.8979648564978367  0.2493796850722068  0.2537781797091757
  0.9820672219967527  0.3458737909021855  0.6696302983066427
  0.2193717687760099  0.5363307973008484  0.1546919321007642
  0.2251210809233735  0.5470961748970251  0.6629901949983739
  0.4956813338880774  0.7608754410994505  0.1291132009862111
  0.4871270798125191  0.7617333020475614  0.6268724206676529
  0.6668226783352266  0.0021792513297765  0.1775947364245372
  0.7177441617669392  0.0042337259748752  0.6428572709208308
  0.2402004123271241  0.0834045054220983  0.2583633497678292
  0.7386834861055029  0.5744816128955517  0.2440444146160166
  0.7599964425296718  0.5877216468897425  0.7847554463334426
  0.9966549413678286  0.8511502594140095  0.7273381827166043
  0.2238783843339708  0.0851009337486939  0.7985381076636000
  0.4888630604691410  0.3356161174426993  0.2139824840655155
  0.9641498071345792  0.3270646982921916  0.2643558039478526
  0.0716159084054905  0.3362450633417238  0.7333987562499523
  0.2335488771691295  0.5894900856176092  0.2724599857451796
  0.2303989984579903  0.5873985595403887  0.7909654188864811
  0.4847127983156952  0.8401935297150209  0.2166213320700736
  0.4844836256263849  0.8348921931906861  0.7249874088497571
  0.7054077777625525  0.0837046254134185  0.2439485244718823
  0.7111837596025320  0.0730616827223438  0.7461964510615896
  0.1672241064652341  0.0118808394322833  0.2506923453853563
  0.6664428131081366  0.5038224065293928  0.2657034622272356
  0.6834719823263656  0.5287962320161258  0.7384550469918686
  0.9209230978095436  0.7827159558036528  0.7228791175823599
  0.1480142226800319  0.0296503173521537  0.7443661006931148
  0.4151750126948957  0.2650602221417171  0.2106932390162253
  0.9603529312695515  0.2553708010755280  0.3628216184868895
  0.9851802380105232  0.3423928411461666  0.8083289590196620
  0.1595126237405257  0.5190343345908288  0.2655280724665567
  0.1602391730446737  0.5159951182596969  0.7624968084556726
  0.4134756139073630  0.7670007858922574  0.2126502377742328
  0.4167439192339549  0.7585749267893082  0.7285927642683887
  0.6623395453982183  0.0079632310833576  0.3165370190559547
  0.6542592305680980  0.9878572820843114  0.7499950419845463
  0.3339851189310854  0.9834876303018948  0.2693832856219613
  0.8309294852011210  0.4718533216277275  0.2250957753934046
  0.8438541092676011  0.4820309547484563  0.7732512264567328
  0.0837703740155598  0.7492445174123207  0.7692920855454048
  0.3121079016424003  0.9847578827256993  0.7499045701560219
  0.5734252517329431  0.2389236814655179  0.2842770990342783
  0.0097304208355914  0.2291927800699828  0.1434097937898178
  0.0281406322119729  0.2151140487852636  0.6647343999929504
  0.3264520244553014  0.4882655285294077  0.2560513996424109
  0.3286679476596767  0.4932040401313065  0.7631994494854645
  0.5737954755928361  0.7459201834546009  0.2804060653401871
  0.5844726448859411  0.7407212406330945  0.7559329314456327
  0.8034955058545027  0.9975684129086240  0.1891671223269670
  0.8242518068728460  0.9923790149956935  0.7584621522812086
  0.2663847546262199  0.9153658734033803  0.2597871764885977
  0.7626463458536673  0.4058892759444782  0.2438383812617600
  0.7750312166517421  0.4244267589778618  0.7272952686142705
  0.0136177893038711  0.6847286941835991  0.7674954312001285
  0.2414667622893130  0.9338190890232501  0.6964160065120736
  0.5028379938249228  0.1747913614126471  0.2835078825920788
  0.0053426243455030  0.1632457591521561  0.2349027369376258
  0.9469377412735848  0.2207957876748258  0.7341768076930953
  0.2567999981824663  0.4221907475523169  0.2466502776466326
  0.2631514680433480  0.4249230900920898  0.7394882362818896
  0.5067125224794282  0.6784948536931527  0.2779568719917954
  0.5191848277767593  0.6711299902102101  0.7614485685293817
  0.7640347312391306  0.9249324655882581  0.2552887554736421
  0.7679982267563029  0.9150944872720762  0.7707041931516208
  0.2684670664459268  0.9728219568710695  0.3627580072474367
  0.7866051410652067  0.4666150852324069  0.3382920433648966
  0.7675158042238887  0.4584102880486981  0.8476303076822482
  0.0132736687093598  0.7534309388525822  0.8570394707874590
  0.2405227478228468  0.9501176567104997  0.8236367725158300
  0.4973996747868603  0.2514393487128716  0.3613334070476669
  0.0673271128466038  0.2352829884690068  0.2442541735509476
  0.0300640457792496  0.2132532470210859  0.7951470956482591
  0.2673522434751077  0.4721124052865875  0.3556545111888822
  0.2667838988206531  0.4660662416342266  0.8551690161820922
  0.4981390121518063  0.7526105832461536  0.3593514335660166
  0.5199243280473259  0.7397792643893372  0.8510055401762335
  0.7995043315358266  0.0012441328912870  0.3186694284171052
  0.7665824362442000  0.9837716968001715  0.8610008138690676
  0.2324406418180419  0.7607589361215662  0.4869999526279924
  0.7384939072303540  0.2501830122942343  0.5333124095898611
  0.7399987907205099  0.2506208583281865  0.9934196557198980
  0.9867279167037052  0.5153770719356524  0.4935232152473354
  0.9902686476979706  0.5068129250847518  0.9978519869042053
  0.2409736353076054  0.7606600306550609  0.9916052387211919
  0.4817870776999807  0.0049032433236135  0.4916039584119190
  0.4865315137168561  0.0110153548691008  0.9854649257929917
  0.9872745560590980  0.0116275562050706  0.4866292590064171
  0.9877683802551298  0.0085096810313827  0.9858621000143121
  0.2322523814911353  0.2650074240675661  0.4854742304209225
  0.2350740370791540  0.2615226619614960  0.9856753124840888
  0.4802863695833178  0.5106215978729736  0.4871467085696214
  0.4883489194703208  0.5088931611381409  0.9857374471924553
  0.7381426543904036  0.7596783386908076  0.4912500629917311
  0.7410464859142741  0.7589245077165471  0.9927653344030362
  0.2233798011089684  0.7740295771223314  0.2381323101947606
  0.7202025968017279  0.2596013581884116  0.2351072059958167
  0.8004651817764088  0.2187783177345778  0.7502935845157216
  0.9861087319023052  0.5001919152007812  0.2433461261932816
  0.9796928396464335  0.5363771377476768  0.7438152998839032
  0.2307589320156196  0.7620767791721086  0.7378911971962253
  0.4769977827850017  0.0278435289905014  0.2362222846304603
  0.4640077856610292  0.0034162712152518  0.7353055631316996
  0.9947549010368633  0.0116755902553753  0.2355009546465677
  0.9703592830990736  0.0235954354754134  0.7359833365398409
  0.2211986682819017  0.2707241371778775  0.2356586274574532
  0.2327765119857385  0.2707254447816773  0.7348894272740133
  0.4767319203884108  0.5242577998268176  0.2427855360490967
  0.4731362821641763  0.5286419304089891  0.7431251911732173
  0.7265556765267759  0.7739802923818547  0.2410400873859378
  0.7392538958893839  0.7665918052071793  0.7413522823002969
  0.3919312096261822  0.8549588193095995  0.9716249026290437
  0.8937406445893392  0.3507918007670041  0.0087678060764078
  0.8635261372577501  0.3789905564075459  0.5091549048637383
  0.0884659555250254  0.6580099555577225  0.0094999659397121
  0.0758877526146619  0.6698214829286728  0.4845206516562571
  0.3892451635569558  0.8497304444084194  0.4628872691407289
  0.5843436567190663  0.1613467758666118  0.9570532100412664
  0.5879728532712529  0.1488737361329298  0.5173141288023019
  0.0779754018710315  0.1684588676791983  0.9718501960738842
  0.0777559785366943  0.1700974956047293  0.4884138781951133
  0.3881313903386746  0.3586710367995358  0.9730252734392526
  0.3927540997547665  0.3498944015929898  0.4784722320181316
  0.5948013580106902  0.6552370216938935  0.0072974033308985
  0.5946102224282976  0.6495224745772296  0.5071824538145500
  0.9028399217363513  0.8476682716048969  0.9849716414986562
  0.8854747372531557  0.8635956030430768  0.4678110977082767
  0.1506996245289967  0.9225826480918624  0.5063018645513746
  0.6218086043319492  0.3958706818339978  0.4369759321942051
  0.6482020517554707  0.4066515332471726  0.9663672522932806
  0.8364290488909376  0.6100891438168872  0.4520560279629758
  0.8369485035856755  0.6040996854082340  0.0090928476443044
  0.1448618096660775  0.9154049829587368  0.9744593523119075
  0.3306768328057308  0.1095551270701530  0.4872124551662668
  0.3333556314265002  0.1081273702556811  0.9757675982771307
  0.8346099888990951  0.1050345153008520  0.4612104600346424
  0.8235782376679306  0.0837483922224708  0.0201726971082312
  0.1479591796228154  0.4248529004215018  0.4991627864690596
  0.3297484185620087  0.6048288355661151  0.4870089335762736
  0.3375264094351980  0.6052813615176511  0.9952713695269289
  0.6271790024694029  0.9003580682569925  0.4875334464023204
  0.6384496921119097  0.9079515539515742  0.9807047717909441
  0.1499281072488831  0.4204660472735197  0.9885170975686645
  0.6277927743199931  0.3607043193169950  0.6769034958112778
  0.9647559605894255  0.7348393103573182  0.2386301588350564
  0.4499968582473912  0.2265734604672962  0.7343982290772644
 
  0.00000000E+00  0.00000000E+00  0.00000000E+00
  0.00000000E+00  0.00000000E+00  0.00000000E+00
  0.00000000E+00  0.00000000E+00  0.00000000E+00
  0.00000000E+00  0.00000000E+00  0.00000000E+00
  0.00000000E+00  0.00000000E+00  0.00000000E+00
  0.00000000E+00  0.00000000E+00  0.00000000E+00
  0.00000000E+00  0.00000000E+00  0.00000000E+00
  0.00000000E+00  0.00000000E+00  0.00000000E+00
  0.00000000E+00  0.00000000E+00  0.00000000E+00
  0.00000000E+00  0.00000000E+00  0.00000000E+00
  0.00000000E+00  0.00000000E+00  0.00000000E+00
  0.00000000E+00  0.00000000E+00  0.00000000E+00
  0.00000000E+00  0.00000000E+00  0.00000000E+00
  0.00000000E+00  0.00000000E+00  0.00000000E+00
  0.00000000E+00  0.00000000E+00  0.00000000E+00
  0.00000000E+00  0.00000000E+00  0.00000000E+00
  0.00000000E+00  0.00000000E+00  0.00000000E+00
  0.00000000E+00  0.00000000E+00  0.00000000E+00
  0.00000000E+00  0.00000000E+00  0.00000000E+00
  0.00000000E+00  0.00000000E+00  0.00000000E+00
  0.00000000E+00  0.00000000E+00  0.00000000E+00
  0.00000000E+00  0.00000000E+00  0.00000000E+00
  0.00000000E+00  0.00000000E+00  0.00000000E+00
  0.00000000E+00  0.00000000E+00  0.00000000E+00
  0.00000000E+00  0.00000000E+00  0.00000000E+00
  0.00000000E+00  0.00000000E+00  0.00000000E+00
  0.00000000E+00  0.00000000E+00  0.00000000E+00
  0.00000000E+00  0.00000000E+00  0.00000000E+00
  0.00000000E+00  0.00000000E+00  0.00000000E+00
  0.00000000E+00  0.00000000E+00  0.00000000E+00
  0.00000000E+00  0.00000000E+00  0.00000000E+00
  0.00000000E+00  0.00000000E+00  0.00000000E+00
  0.00000000E+00  0.00000000E+00  0.00000000E+00
  0.00000000E+00  0.00000000E+00  0.00000000E+00
  0.00000000E+00  0.00000000E+00  0.00000000E+00
  0.00000000E+00  0.00000000E+00  0.00000000E+00
  0.00000000E+00  0.00000000E+00  0.00000000E+00
  0.00000000E+00  0.00000000E+00  0.00000000E+00
  0.00000000E+00  0.00000000E+00  0.00000000E+00
  0.00000000E+00  0.00000000E+00  0.00000000E+00
  0.00000000E+00  0.00000000E+00  0.00000000E+00
  0.00000000E+00  0.00000000E+00  0.00000000E+00
  0.00000000E+00  0.00000000E+00  0.00000000E+00
  0.00000000E+00  0.00000000E+00  0.00000000E+00
  0.00000000E+00  0.00000000E+00  0.00000000E+00
  0.00000000E+00  0.00000000E+00  0.00000000E+00
  0.00000000E+00  0.00000000E+00  0.00000000E+00
  0.00000000E+00  0.00000000E+00  0.00000000E+00
  0.00000000E+00  0.00000000E+00  0.00000000E+00
  0.00000000E+00  0.00000000E+00  0.00000000E+00
  0.00000000E+00  0.00000000E+00  0.00000000E+00
  0.00000000E+00  0.00000000E+00  0.00000000E+00
  0.00000000E+00  0.00000000E+00  0.00000000E+00
  0.00000000E+00  0.00000000E+00  0.00000000E+00
  0.00000000E+00  0.00000000E+00  0.00000000E+00
  0.00000000E+00  0.00000000E+00  0.00000000E+00
  0.00000000E+00  0.00000000E+00  0.00000000E+00
  0.00000000E+00  0.00000000E+00  0.00000000E+00
  0.00000000E+00  0.00000000E+00  0.00000000E+00
  0.00000000E+00  0.00000000E+00  0.00000000E+00
  0.00000000E+00  0.00000000E+00  0.00000000E+00
  0.00000000E+00  0.00000000E+00  0.00000000E+00
  0.00000000E+00  0.00000000E+00  0.00000000E+00
  0.00000000E+00  0.00000000E+00  0.00000000E+00
  0.00000000E+00  0.00000000E+00  0.00000000E+00
  0.00000000E+00  0.00000000E+00  0.00000000E+00
  0.00000000E+00  0.00000000E+00  0.00000000E+00
  0.00000000E+00  0.00000000E+00  0.00000000E+00
  0.00000000E+00  0.00000000E+00  0.00000000E+00
  0.00000000E+00  0.00000000E+00  0.00000000E+00
  0.00000000E+00  0.00000000E+00  0.00000000E+00
  0.00000000E+00  0.00000000E+00  0.00000000E+00
  0.00000000E+00  0.00000000E+00  0.00000000E+00
  0.00000000E+00  0.00000000E+00  0.00000000E+00
  0.00000000E+00  0.00000000E+00  0.00000000E+00
  0.00000000E+00  0.00000000E+00  0.00000000E+00
  0.00000000E+00  0.00000000E+00  0.00000000E+00
  0.00000000E+00  0.00000000E+00  0.00000000E+00
  0.00000000E+00  0.00000000E+00  0.00000000E+00
  0.00000000E+00  0.00000000E+00  0.00000000E+00
  0.00000000E+00  0.00000000E+00  0.00000000E+00
  0.00000000E+00  0.00000000E+00  0.00000000E+00
  0.00000000E+00  0.00000000E+00  0.00000000E+00
  0.00000000E+00  0.00000000E+00  0.00000000E+00
  0.00000000E+00  0.00000000E+00  0.00000000E+00
  0.00000000E+00  0.00000000E+00  0.00000000E+00
  0.00000000E+00  0.00000000E+00  0.00000000E+00
  0.00000000E+00  0.00000000E+00  0.00000000E+00
  0.00000000E+00  0.00000000E+00  0.00000000E+00
  0.00000000E+00  0.00000000E+00  0.00000000E+00
  0.00000000E+00  0.00000000E+00  0.00000000E+00
  0.00000000E+00  0.00000000E+00  0.00000000E+00
  0.00000000E+00  0.00000000E+00  0.00000000E+00
  0.00000000E+00  0.00000000E+00  0.00000000E+00
  0.00000000E+00  0.00000000E+00  0.00000000E+00
  0.00000000E+00  0.00000000E+00  0.00000000E+00
  0.00000000E+00  0.00000000E+00  0.00000000E+00
  0.00000000E+00  0.00000000E+00  0.00000000E+00
  0.00000000E+00  0.00000000E+00  0.00000000E+00
  0.00000000E+00  0.00000000E+00  0.00000000E+00
  0.00000000E+00  0.00000000E+00  0.00000000E+00
  0.00000000E+00  0.00000000E+00  0.00000000E+00
  0.00000000E+00  0.00000000E+00  0.00000000E+00
  0.00000000E+00  0.00000000E+00  0.00000000E+00
  0.00000000E+00  0.00000000E+00  0.00000000E+00
  0.00000000E+00  0.00000000E+00  0.00000000E+00
  0.00000000E+00  0.00000000E+00  0.00000000E+00
  0.00000000E+00  0.00000000E+00  0.00000000E+00
  0.00000000E+00  0.00000000E+00  0.00000000E+00
  0.00000000E+00  0.00000000E+00  0.00000000E+00
  0.00000000E+00  0.00000000E+00  0.00000000E+00
  0.00000000E+00  0.00000000E+00  0.00000000E+00
  0.00000000E+00  0.00000000E+00  0.00000000E+00
  0.00000000E+00  0.00000000E+00  0.00000000E+00
  0.00000000E+00  0.00000000E+00  0.00000000E+00
  0.00000000E+00  0.00000000E+00  0.00000000E+00
  0.00000000E+00  0.00000000E+00  0.00000000E+00
  0.00000000E+00  0.00000000E+00  0.00000000E+00
  0.00000000E+00  0.00000000E+00  0.00000000E+00
  0.00000000E+00  0.00000000E+00  0.00000000E+00
  0.00000000E+00  0.00000000E+00  0.00000000E+00
  0.00000000E+00  0.00000000E+00  0.00000000E+00
  0.00000000E+00  0.00000000E+00  0.00000000E+00
  0.00000000E+00  0.00000000E+00  0.00000000E+00
  0.00000000E+00  0.00000000E+00  0.00000000E+00
  0.00000000E+00  0.00000000E+00  0.00000000E+00
  0.00000000E+00  0.00000000E+00  0.00000000E+00
  0.00000000E+00  0.00000000E+00  0.00000000E+00
  0.00000000E+00  0.00000000E+00  0.00000000E+00
  0.00000000E+00  0.00000000E+00  0.00000000E+00
  0.00000000E+00  0.00000000E+00  0.00000000E+00
  0.00000000E+00  0.00000000E+00  0.00000000E+00
  0.00000000E+00  0.00000000E+00  0.00000000E+00
  0.00000000E+00  0.00000000E+00  0.00000000E+00
  0.00000000E+00  0.00000000E+00  0.00000000E+00
  0.00000000E+00  0.00000000E+00  0.00000000E+00
  0.00000000E+00  0.00000000E+00  0.00000000E+00
  0.00000000E+00  0.00000000E+00  0.00000000E+00
  0.00000000E+00  0.00000000E+00  0.00000000E+00
  0.00000000E+00  0.00000000E+00  0.00000000E+00
  0.00000000E+00  0.00000000E+00  0.00000000E+00
  0.00000000E+00  0.00000000E+00  0.00000000E+00
  0.00000000E+00  0.00000000E+00  0.00000000E+00
  0.00000000E+00  0.00000000E+00  0.00000000E+00
  0.00000000E+00  0.00000000E+00  0.00000000E+00
  0.00000000E+00  0.00000000E+00  0.00000000E+00
  0.00000000E+00  0.00000000E+00  0.00000000E+00
  0.00000000E+00  0.00000000E+00  0.00000000E+00
  0.00000000E+00  0.00000000E+00  0.00000000E+00
  0.00000000E+00  0.00000000E+00  0.00000000E+00
  0.00000000E+00  0.00000000E+00  0.00000000E+00
  0.00000000E+00  0.00000000E+00  0.00000000E+00
  0.00000000E+00  0.00000000E+00  0.00000000E+00
  0.00000000E+00  0.00000000E+00  0.00000000E+00
  0.00000000E+00  0.00000000E+00  0.00000000E+00
  0.00000000E+00  0.00000000E+00  0.00000000E+00
  0.00000000E+00  0.00000000E+00  0.00000000E+00
  0.00000000E+00  0.00000000E+00  0.00000000E+00
  0.00000000E+00  0.00000000E+00  0.00000000E+00
  0.00000000E+00  0.00000000E+00  0.00000000E+00
  0.00000000E+00  0.00000000E+00  0.00000000E+00
  0.00000000E+00  0.00000000E+00  0.00000000E+00
  0.00000000E+00  0.00000000E+00  0.00000000E+00
  0.00000000E+00  0.00000000E+00  0.00000000E+00
  0.00000000E+00  0.00000000E+00  0.00000000E+00
  0.00000000E+00  0.00000000E+00  0.00000000E+00
  0.00000000E+00  0.00000000E+00  0.00000000E+00
  0.00000000E+00  0.00000000E+00  0.00000000E+00
  0.00000000E+00  0.00000000E+00  0.00000000E+00
  0.00000000E+00  0.00000000E+00  0.00000000E+00
  0.00000000E+00  0.00000000E+00  0.00000000E+00
  0.00000000E+00  0.00000000E+00  0.00000000E+00
  0.00000000E+00  0.00000000E+00  0.00000000E+00
  0.00000000E+00  0.00000000E+00  0.00000000E+00
  0.00000000E+00  0.00000000E+00  0.00000000E+00
  0.00000000E+00  0.00000000E+00  0.00000000E+00
  0.00000000E+00  0.00000000E+00  0.00000000E+00
  0.00000000E+00  0.00000000E+00  0.00000000E+00
  0.00000000E+00  0.00000000E+00  0.00000000E+00
