       N       E                     dE             d eps       ncg     rms          ort
DAV:   1     0.101845109562E+05    0.10185E+05   -0.25705E+05   512   0.114E+03
DAV:   2     0.406131018197E+04   -0.61232E+04   -0.58089E+04   512   0.347E+02
DAV:   3     0.169813249586E+04   -0.23632E+04   -0.22841E+04   512   0.249E+02
DAV:   4     0.939655759321E+03   -0.75848E+03   -0.74624E+03   512   0.142E+02
DAV:   5     0.714883958538E+03   -0.22477E+03   -0.22121E+03   512   0.656E+01
SDA:   6    -0.669663095634E+03   -0.13845E+04   -0.23512E+03   512   0.588E+03 0.000E+00
DMP:   7    -0.805610584846E+03   -0.13595E+03   -0.82664E+02   512   0.170E+03 0.968E+02
DMP:   8    -0.848316970944E+03   -0.42706E+02   -0.23672E+02   512   0.580E+02 0.312E+01
DMP:   9    -0.863379926639E+03   -0.15063E+02   -0.11149E+02   512   0.230E+02 0.127E+02
DMP:  10    -0.870028228810E+03   -0.66483E+01   -0.50664E+01   512   0.112E+02 0.376E+01
DMP:  11    -0.873290516994E+03   -0.32623E+01   -0.18515E+01   512   0.344E+01 0.310E+01
DMP:  12    -0.874524173544E+03   -0.12337E+01   -0.88179E+00   512   0.168E+01 0.138E+01
DMP:  13    -0.875131676864E+03   -0.60750E+00   -0.40456E+00   512   0.715E+00 0.775E+00
DMP:  14    -0.875369873816E+03   -0.23820E+00   -0.16537E+00   512   0.302E+00 0.292E+00
DMP:  15    -0.875482547558E+03   -0.11267E+00   -0.74581E-01   512   0.131E+00 0.146E+00
DMP:  16    -0.875537318158E+03   -0.54771E-01   -0.33583E-01   512   0.512E-01 0.857E-01
DMP:  17    -0.875561440575E+03   -0.24122E-01   -0.13945E-01   512   0.212E-01 0.358E-01
DMP:  18    -0.875572064665E+03   -0.10624E-01   -0.63228E-02   512   0.892E-02 0.180E-01
DMP:  19    -0.875576856426E+03   -0.47918E-02   -0.28673E-02   512   0.407E-02 0.810E-02
DMP:  20    -0.875579116033E+03   -0.22596E-02   -0.13322E-02   512   0.179E-02 0.403E-02
DMP:  21    -0.875580183299E+03   -0.10673E-02   -0.67448E-03   512   0.938E-03 0.196E-02
DMP:  22    -0.875580726858E+03   -0.54356E-03   -0.34007E-03   512   0.450E-03 0.105E-02
DMP:  23    -0.875581007318E+03   -0.28046E-03   -0.17648E-03   512   0.227E-03 0.560E-03
DMP:  24    -0.875581157530E+03   -0.15021E-03   -0.91499E-04   512   0.113E-03 0.303E-03
DMP:  25    -0.875581236702E+03   -0.79172E-04   -0.50590E-04   512   0.634E-04 0.165E-03
   1 F= -.89920493E+03 E0= -.89920493E+03  d E =-.899205E+03  mag=     1.0000
       N       E                     dE             d eps       ncg     rms          ort
SDA:   1    -0.874056117636E+03    0.15250E+01   -0.17853E+01   512   0.446E+01 0.000E+00
DMP:   2    -0.875087396432E+03   -0.10313E+01   -0.53968E+00   512   0.108E+01 0.701E+00
DMP:   3    -0.875435915850E+03   -0.34852E+00   -0.27837E+00   512   0.546E+00 0.394E+00
DMP:   4    -0.875574396663E+03   -0.13848E+00   -0.50757E-01   512   0.128E+00-0.386E-02
DMP:   5    -0.875597232009E+03   -0.22835E-01   -0.20187E-01   512   0.553E-01-0.128E-01
DMP:   6    -0.875605645082E+03   -0.84131E-02   -0.86230E-02   512   0.248E-01-0.847E-02
DMP:   7    -0.875610683929E+03   -0.50388E-02   -0.59481E-02   512   0.135E-01 0.363E-02
DMP:   8    -0.875614247663E+03   -0.35637E-02   -0.21072E-02   512   0.414E-02 0.294E-02
DMP:   9    -0.875615542531E+03   -0.12949E-02   -0.74130E-03   512   0.140E-02 0.118E-02
DMP:  10    -0.875615946556E+03   -0.40402E-03   -0.20683E-03   512   0.459E-03 0.152E-03
DMP:  11    -0.875616050862E+03   -0.10431E-03   -0.85832E-04   512   0.215E-03-0.162E-05
DMP:  12    -0.875616097911E+03   -0.47049E-04   -0.36485E-04   512   0.839E-04 0.191E-04
   2 F= -.89923463E+03 E0= -.89923463E+03  d E =-.296958E-01  mag=     1.0000
       N       E                     dE             d eps       ncg     rms          ort
SDA:   1    -0.875390052680E+03    0.22600E+00   -0.45340E+00   512   0.113E+01 0.000E+00
DMP:   2    -0.875616294189E+03   -0.22624E+00   -0.12030E+00   512   0.302E+00-0.360E-02
DMP:   3    -0.875691793049E+03   -0.75499E-01   -0.50331E-01   512   0.965E-01 0.767E-01
DMP:   4    -0.875714717632E+03   -0.22925E-01   -0.10696E-01   512   0.310E-01-0.113E-01
DMP:   5    -0.875719291943E+03   -0.45743E-02   -0.53189E-02   512   0.148E-01-0.385E-02
DMP:   6    -0.875721481744E+03   -0.21898E-02   -0.20681E-02   512   0.606E-02-0.233E-02
DMP:   7    -0.875722707587E+03   -0.12258E-02   -0.10944E-02   512   0.237E-02 0.956E-03
DMP:   8    -0.875723343357E+03   -0.63577E-03   -0.41569E-03   512   0.869E-03 0.445E-03
DMP:   9    -0.875723582900E+03   -0.23954E-03   -0.15766E-03   512   0.329E-03 0.170E-03
DMP:  10    -0.875723665384E+03   -0.82484E-04   -0.46371E-04   512   0.106E-03 0.261E-04
   3 F= -.89934458E+03 E0= -.89934458E+03  d E =-.139652E+00  mag=     1.0000
       N       E                     dE             d eps       ncg     rms          ort
SDA:   1    -0.873202182308E+03    0.25214E+01   -0.25254E+01   512   0.631E+01 0.000E+00
DMP:   2    -0.874883186070E+03   -0.16810E+01   -0.99864E+00   512   0.170E+01 0.210E+01
DMP:   3    -0.875503618637E+03   -0.62043E+00   -0.33377E+00   512   0.603E+00 0.605E+00
DMP:   4    -0.875671514369E+03   -0.16790E+00   -0.59416E-01   512   0.147E+00 0.505E-02
DMP:   5    -0.875693646611E+03   -0.22132E-01   -0.22867E-01   512   0.716E-01-0.378E-01
DMP:   6    -0.875704134169E+03   -0.10488E-01   -0.14231E-01   512   0.374E-01-0.474E-02
DMP:   7    -0.875713108359E+03   -0.89742E-02   -0.82465E-02   512   0.171E-01 0.931E-02
DMP:   8    -0.875718185269E+03   -0.50769E-02   -0.28427E-02   512   0.528E-02 0.478E-02
DMP:   9    -0.875719830672E+03   -0.16454E-02   -0.76366E-03   512   0.148E-02 0.111E-02
DMP:  10    -0.875720211227E+03   -0.38055E-03   -0.25386E-03   512   0.639E-03-0.118E-04
DMP:  11    -0.875720342410E+03   -0.13118E-03   -0.12288E-03   512   0.300E-03 0.198E-04
DMP:  12    -0.875720415309E+03   -0.72898E-04   -0.55483E-04   512   0.117E-03 0.574E-04
   4 F= -.89933551E+03 E0= -.89933551E+03  d E =0.907279E-02  mag=     1.0000
       N       E                     dE             d eps       ncg     rms          ort
SDA:   1    -0.875084652086E+03    0.63569E+00   -0.74397E+00   512   0.186E+01 0.000E+00
DMP:   2    -0.875555178285E+03   -0.47053E+00   -0.24197E+00   512   0.417E+00 0.492E+00
DMP:   3    -0.875704985640E+03   -0.14981E+00   -0.77893E-01   512   0.140E+00 0.144E+00
DMP:   4    -0.875745394966E+03   -0.40409E-01   -0.16347E-01   512   0.381E-01 0.725E-02
DMP:   5    -0.875752438315E+03   -0.70433E-02   -0.77650E-02   512   0.216E-01-0.569E-02
DMP:   6    -0.875756138389E+03   -0.37001E-02   -0.29755E-02   512   0.779E-02-0.910E-03
DMP:   7    -0.875757819785E+03   -0.16814E-02   -0.15784E-02   512   0.358E-02 0.962E-03
DMP:   8    -0.875758811195E+03   -0.99141E-03   -0.65845E-03   512   0.126E-02 0.100E-02
DMP:   9    -0.875759232375E+03   -0.42118E-03   -0.28397E-03   512   0.534E-03 0.461E-03
DMP:  10    -0.875759406887E+03   -0.17451E-03   -0.90686E-04   512   0.163E-03 0.166E-03
DMP:  11    -0.875759458538E+03   -0.51651E-04   -0.28491E-04   512   0.592E-04 0.315E-04
   5 F= -.89937757E+03 E0= -.89937757E+03  d E =-.329906E-01  mag=     1.0000
       N       E                     dE             d eps       ncg     rms          ort
SDA:   1    -0.875664239268E+03    0.95168E-01   -0.11445E+00   512   0.286E+00 0.000E+00
DMP:   2    -0.875737416370E+03   -0.73177E-01   -0.36722E-01   512   0.614E-01 0.797E-01
DMP:   3    -0.875758676166E+03   -0.21260E-01   -0.14168E-01   512   0.299E-01 0.145E-01
DMP:   4    -0.875766546163E+03   -0.78700E-02   -0.34781E-02   512   0.719E-02 0.393E-02
DMP:   5    -0.875768037850E+03   -0.14917E-02   -0.12416E-02   512   0.357E-02-0.121E-02
DMP:   6    -0.875768699620E+03   -0.66177E-03   -0.60770E-03   512   0.144E-02 0.195E-03
DMP:   7    -0.875769052955E+03   -0.35333E-03   -0.28809E-03   512   0.627E-03 0.244E-03
DMP:   8    -0.875769229532E+03   -0.17658E-03   -0.11726E-03   512   0.232E-03 0.161E-03
DMP:   9    -0.875769298820E+03   -0.69287E-04   -0.42618E-04   512   0.864E-04 0.528E-04
   6 F= -.89938604E+03 E0= -.89938604E+03  d E =-.846645E-02  mag=     1.0000
       N       E                     dE             d eps       ncg     rms          ort
SDA:   1    -0.875753289087E+03    0.15940E-01   -0.18807E-01   512   0.470E-01 0.000E+00
DMP:   2    -0.875765354289E+03   -0.12065E-01   -0.61358E-02   512   0.103E-01 0.133E-01
DMP:   3    -0.875768928651E+03   -0.35744E-02   -0.23145E-02   512   0.482E-02 0.254E-02
DMP:   4    -0.875770215305E+03   -0.12867E-02   -0.57222E-03   512   0.118E-02 0.650E-03
DMP:   5    -0.875770460236E+03   -0.24493E-03   -0.21431E-03   512   0.611E-03-0.197E-03
DMP:   6    -0.875770577945E+03   -0.11771E-03   -0.10504E-03   512   0.243E-03 0.503E-04
DMP:   7    -0.875770639806E+03   -0.61861E-04   -0.49185E-04   512   0.106E-03 0.450E-04
   7 F= -.89938682E+03 E0= -.89938682E+03  d E =-.924872E-02  mag=     1.0000
       N       E                     dE             d eps       ncg     rms          ort
SDA:   1    -0.875758487969E+03    0.12090E-01   -0.18764E-01   512   0.469E-01 0.000E+00
DMP:   2    -0.875770488851E+03   -0.12001E-01   -0.59347E-02   512   0.984E-02 0.131E-01
DMP:   3    -0.875773868236E+03   -0.33794E-02   -0.22728E-02   512   0.489E-02 0.207E-02
DMP:   4    -0.875775163183E+03   -0.12949E-02   -0.63690E-03   512   0.129E-02 0.789E-03
DMP:   5    -0.875775461925E+03   -0.29874E-03   -0.23354E-03   512   0.619E-03-0.927E-04
DMP:   6    -0.875775592914E+03   -0.13099E-03   -0.10467E-03   512   0.236E-03 0.677E-04
DMP:   7    -0.875775652766E+03   -0.59851E-04   -0.45037E-04   512   0.986E-04 0.365E-04
   8 F= -.89939135E+03 E0= -.89939135E+03  d E =-.453062E-02  mag=     1.0000
       N       E                     dE             d eps       ncg     rms          ort
SDA:   1    -0.875630385293E+03    0.14521E+00   -0.17360E+00   512   0.434E+00 0.000E+00
DMP:   2    -0.875740107373E+03   -0.10972E+00   -0.52439E-01   512   0.873E-01 0.115E+00
DMP:   3    -0.875769444485E+03   -0.29337E-01   -0.21146E-01   512   0.469E-01 0.156E-01
DMP:   4    -0.875781357303E+03   -0.11913E-01   -0.56045E-02   512   0.115E-01 0.667E-02
DMP:   5    -0.875783899698E+03   -0.25424E-02   -0.20581E-02   512   0.563E-02-0.127E-02
DMP:   6    -0.875785047295E+03   -0.11476E-02   -0.95895E-03   512   0.218E-02 0.574E-03
DMP:   7    -0.875785592078E+03   -0.54478E-03   -0.39870E-03   512   0.872E-03 0.326E-03
DMP:   8    -0.875785825214E+03   -0.23314E-03   -0.15418E-03   512   0.322E-03 0.167E-03
DMP:   9    -0.875785913512E+03   -0.88298E-04   -0.61011E-04   512   0.131E-03 0.557E-04
   9 F= -.89940016E+03 E0= -.89940016E+03  d E =-.133410E-01  mag=     1.0000
       N       E                     dE             d eps       ncg     rms          ort
SDA:   1    -0.875156524211E+03    0.62930E+00   -0.70835E+00   512   0.177E+01 0.000E+00
DMP:   2    -0.875600668930E+03   -0.44414E+00   -0.20951E+00   512   0.352E+00 0.450E+00
DMP:   3    -0.875717059424E+03   -0.11639E+00   -0.85814E-01   512   0.192E+00 0.583E-01
DMP:   4    -0.875765328353E+03   -0.48269E-01   -0.22870E-01   512   0.470E-01 0.267E-01
DMP:   5    -0.875775502638E+03   -0.10174E-01   -0.81187E-02   512   0.227E-01-0.622E-02
DMP:   6    -0.875780024493E+03   -0.45219E-02   -0.39402E-02   512   0.899E-02 0.226E-02
DMP:   7    -0.875782284637E+03   -0.22601E-02   -0.16157E-02   512   0.349E-02 0.145E-02
DMP:   8    -0.875783227816E+03   -0.94318E-03   -0.62585E-03   512   0.131E-02 0.676E-03
DMP:   9    -0.875783585549E+03   -0.35773E-03   -0.24418E-03   512   0.526E-03 0.221E-03
DMP:  10    -0.875783723476E+03   -0.13793E-03   -0.87669E-04   512   0.187E-03 0.846E-04
DMP:  11    -0.875783777803E+03   -0.54327E-04   -0.40195E-04   512   0.814E-04 0.499E-04
  10 F= -.89939511E+03 E0= -.89939511E+03  d E =-.829027E-02  mag=     1.0000
       N       E                     dE             d eps       ncg     rms          ort
SDA:   1    -0.875501485856E+03    0.28224E+00   -0.33527E+00   512   0.838E+00 0.000E+00
DMP:   2    -0.875706935677E+03   -0.20545E+00   -0.89480E-01   512   0.151E+00 0.189E+00
DMP:   3    -0.875757258307E+03   -0.50323E-01   -0.36577E-01   512   0.808E-01 0.279E-01
DMP:   4    -0.875778844896E+03   -0.21587E-01   -0.11135E-01   512   0.215E-01 0.165E-01
DMP:   5    -0.875784474816E+03   -0.56299E-02   -0.40001E-02   512   0.988E-02 0.312E-03
DMP:   6    -0.875786764565E+03   -0.22897E-02   -0.18956E-02   512   0.419E-02 0.145E-02
DMP:   7    -0.875787853241E+03   -0.10887E-02   -0.76856E-03   512   0.165E-02 0.711E-03
DMP:   8    -0.875788311639E+03   -0.45840E-03   -0.28699E-03   512   0.574E-03 0.377E-03
DMP:   9    -0.875788477397E+03   -0.16576E-03   -0.10545E-03   512   0.221E-03 0.111E-03
DMP:  10    -0.875788540821E+03   -0.63424E-04   -0.44212E-04   512   0.901E-04 0.534E-04
  11 F= -.89940185E+03 E0= -.89940185E+03  d E =-.150293E-01  mag=     1.0000
       N       E                     dE             d eps       ncg     rms          ort
SDA:   1    -0.875722723228E+03    0.65754E-01   -0.79102E-01   512   0.198E+00 0.000E+00
DMP:   2    -0.875773435250E+03   -0.50712E-01   -0.25168E-01   512   0.416E-01 0.558E-01
DMP:   3    -0.875787655073E+03   -0.14220E-01   -0.93787E-02   512   0.203E-01 0.821E-02
DMP:   4    -0.875792884548E+03   -0.52295E-02   -0.25151E-02   512   0.526E-02 0.268E-02
DMP:   5    -0.875794021527E+03   -0.11370E-02   -0.92702E-03   512   0.254E-02-0.592E-03
DMP:   6    -0.875794529006E+03   -0.50748E-03   -0.43561E-03   512   0.101E-02 0.211E-03
DMP:   7    -0.875794775758E+03   -0.24675E-03   -0.18601E-03   512   0.410E-03 0.145E-03
DMP:   8    -0.875794883917E+03   -0.10816E-03   -0.69264E-04   512   0.144E-03 0.752E-04
DMP:   9    -0.875794922836E+03   -0.38918E-04   -0.26695E-04   512   0.585E-04 0.217E-04
  12 F= -.89940737E+03 E0= -.89940737E+03  d E =-.551724E-02  mag=     1.0000
       N       E                     dE             d eps       ncg     rms          ort
SDA:   1    -0.875753850388E+03    0.41034E-01   -0.47175E-01   512   0.118E+00 0.000E+00
DMP:   2    -0.875784161264E+03   -0.30311E-01   -0.15124E-01   512   0.250E-01 0.336E-01
DMP:   3    -0.875792729344E+03   -0.85681E-02   -0.55814E-02   512   0.120E-01 0.505E-02
DMP:   4    -0.875795839206E+03   -0.31099E-02   -0.14830E-02   512   0.310E-02 0.158E-02
DMP:   5    -0.875796500992E+03   -0.66179E-03   -0.56130E-03   512   0.155E-02-0.391E-03
DMP:   6    -0.875796815323E+03   -0.31433E-03   -0.27185E-03   512   0.618E-03 0.162E-03
DMP:   7    -0.875796971414E+03   -0.15609E-03   -0.11470E-03   512   0.248E-03 0.101E-03
DMP:   8    -0.875797039264E+03   -0.67849E-04   -0.43311E-04   512   0.885E-04 0.517E-04
  13 F= -.89940882E+03 E0= -.89940882E+03  d E =-.696619E-02  mag=     1.0000
       N       E                     dE             d eps       ncg     rms          ort
SDA:   1    -0.875795262923E+03    0.17085E-02   -0.21593E-02   512   0.540E-02 0.000E+00
DMP:   2    -0.875796640903E+03   -0.13780E-02   -0.68658E-03   512   0.115E-02 0.149E-02
DMP:   3    -0.875797030014E+03   -0.38911E-03   -0.24567E-03   512   0.526E-03 0.232E-03
DMP:   4    -0.875797161787E+03   -0.13177E-03   -0.63970E-04   512   0.143E-03 0.437E-04
DMP:   5    -0.875797191696E+03   -0.29909E-04   -0.30158E-04   512   0.791E-04-0.957E-05
  14 F= -.89940883E+03 E0= -.89940883E+03  d E =-.697538E-02  mag=     1.0000
       N       E                     dE             d eps       ncg     rms          ort
SDA:   1    -0.875783871559E+03    0.13290E-01   -0.14973E-01   512   0.374E-01 0.000E+00
DMP:   2    -0.875794027985E+03   -0.10156E-01   -0.59766E-02   512   0.985E-02 0.133E-01
DMP:   3    -0.875797757424E+03   -0.37294E-02   -0.20409E-02   512   0.368E-02 0.372E-02
DMP:   4    -0.875798962491E+03   -0.12051E-02   -0.57584E-03   512   0.109E-02 0.918E-03
DMP:   5    -0.875799257580E+03   -0.29509E-03   -0.19070E-03   512   0.462E-03 0.395E-04
DMP:   6    -0.875799361083E+03   -0.10350E-03   -0.86585E-04   512   0.198E-03 0.477E-04
DMP:   7    -0.875799413405E+03   -0.52322E-04   -0.39041E-04   512   0.807E-04 0.442E-04
  15 F= -.89941073E+03 E0= -.89941073E+03  d E =-.190170E-02  mag=     1.0000
       N       E                     dE             d eps       ncg     rms          ort
SDA:   1    -0.875663420109E+03    0.13594E+00   -0.13579E+00   512   0.339E+00 0.000E+00
DMP:   2    -0.875755509114E+03   -0.92089E-01   -0.54106E-01   512   0.891E-01 0.121E+00
DMP:   3    -0.875788989785E+03   -0.33481E-01   -0.18383E-01   512   0.337E-01 0.322E-01
DMP:   4    -0.875799640046E+03   -0.10650E-01   -0.50538E-02   512   0.986E-02 0.726E-02
DMP:   5    -0.875802190041E+03   -0.25500E-02   -0.16579E-02   512   0.409E-02 0.149E-03
DMP:   6    -0.875803107719E+03   -0.91768E-03   -0.78055E-03   512   0.179E-02 0.429E-03
DMP:   7    -0.875803581078E+03   -0.47336E-03   -0.34418E-03   512   0.701E-03 0.417E-03
DMP:   8    -0.875803790890E+03   -0.20981E-03   -0.12768E-03   512   0.248E-03 0.187E-03
DMP:   9    -0.875803868684E+03   -0.77794E-04   -0.53549E-04   512   0.108E-03 0.686E-04
  16 F= -.89941423E+03 E0= -.89941423E+03  d E =-.539912E-02  mag=     1.0000
       N       E                     dE             d eps       ncg     rms          ort
SDA:   1    -0.875237655321E+03    0.56614E+00   -0.55180E+00   512   0.138E+01 0.000E+00
DMP:   2    -0.875609278568E+03   -0.37162E+00   -0.21803E+00   512   0.362E+00 0.479E+00
DMP:   3    -0.875742886614E+03   -0.13361E+00   -0.75760E-01   512   0.142E+00 0.123E+00
DMP:   4    -0.875786364838E+03   -0.43478E-01   -0.20670E-01   512   0.410E-01 0.279E-01
DMP:   5    -0.875796712173E+03   -0.10347E-01   -0.66183E-02   512   0.165E-01 0.161E-03
DMP:   6    -0.875800375274E+03   -0.36631E-02   -0.31439E-02   512   0.720E-02 0.173E-02
DMP:   7    -0.875802299445E+03   -0.19242E-02   -0.14521E-02   512   0.296E-02 0.176E-02
DMP:   8    -0.875803162424E+03   -0.86298E-03   -0.52797E-03   512   0.106E-02 0.690E-03
DMP:   9    -0.875803467171E+03   -0.30475E-03   -0.22775E-03   512   0.495E-03 0.194E-03
DMP:  10    -0.875803588336E+03   -0.12116E-03   -0.86453E-04   512   0.198E-03 0.478E-04
DMP:  11    -0.875803637527E+03   -0.49191E-04   -0.42094E-04   512   0.968E-04 0.220E-04
  17 F= -.89941209E+03 E0= -.89941209E+03  d E =-.326091E-02  mag=     1.0000
       N       E                     dE             d eps       ncg     rms          ort
SDA:   1    -0.875540278585E+03    0.26331E+00   -0.26451E+00   512   0.661E+00 0.000E+00
DMP:   2    -0.875715303224E+03   -0.17502E+00   -0.97508E-01   512   0.162E+00 0.214E+00
DMP:   3    -0.875775962794E+03   -0.60660E-01   -0.34039E-01   512   0.623E-01 0.596E-01
DMP:   4    -0.875796258290E+03   -0.20295E-01   -0.97852E-02   512   0.182E-01 0.163E-01
DMP:   5    -0.875801555149E+03   -0.52969E-02   -0.34664E-02   512   0.789E-02 0.203E-02
DMP:   6    -0.875803557775E+03   -0.20026E-02   -0.15028E-02   512   0.325E-02 0.134E-02
DMP:   7    -0.875804452592E+03   -0.89482E-03   -0.67455E-03   512   0.141E-02 0.721E-03
DMP:   8    -0.875804863220E+03   -0.41063E-03   -0.23992E-03   512   0.457E-03 0.373E-03
DMP:   9    -0.875805003179E+03   -0.13996E-03   -0.92743E-04   512   0.195E-03 0.969E-04
DMP:  10    -0.875805059193E+03   -0.56015E-04   -0.38845E-04   512   0.778E-04 0.506E-04
  18 F= -.89941481E+03 E0= -.89941481E+03  d E =-.598662E-02  mag=     1.0000
       N       E                     dE             d eps       ncg     rms          ort
SDA:   1    -0.875803372599E+03    0.16306E-02   -0.27484E-02   512   0.687E-02 0.000E+00
DMP:   2    -0.875805224096E+03   -0.18515E-02   -0.10265E-02   512   0.166E-02 0.238E-02
DMP:   3    -0.875805869757E+03   -0.64566E-03   -0.37348E-03   512   0.681E-03 0.663E-03
DMP:   4    -0.875806094174E+03   -0.22442E-03   -0.10755E-03   512   0.197E-03 0.189E-03
DMP:   5    -0.875806151902E+03   -0.57728E-04   -0.35702E-04   512   0.813E-04 0.209E-04
  19 F= -.89941578E+03 E0= -.89941578E+03  d E =-.966338E-03  mag=     1.0000
       N       E                     dE             d eps       ncg     rms          ort
SDA:   1    -0.875784021188E+03    0.22073E-01   -0.24498E-01   512   0.612E-01 0.000E+00
DMP:   2    -0.875800560577E+03   -0.16539E-01   -0.94763E-02   512   0.155E-01 0.214E-01
DMP:   3    -0.875806438099E+03   -0.58775E-02   -0.33165E-02   512   0.611E-02 0.571E-02
DMP:   4    -0.875808425263E+03   -0.19872E-02   -0.96635E-03   512   0.179E-02 0.164E-02
DMP:   5    -0.875808923891E+03   -0.49863E-03   -0.30309E-03   512   0.725E-03 0.863E-04
DMP:   6    -0.875809091972E+03   -0.16808E-03   -0.13750E-03   512   0.313E-03 0.801E-04
DMP:   7    -0.875809173125E+03   -0.81153E-04   -0.58742E-04   512   0.123E-03 0.620E-04
  20 F= -.89941842E+03 E0= -.89941842E+03  d E =-.360880E-02  mag=     1.0000
       N       E                     dE             d eps       ncg     rms          ort
SDA:   1    -0.875713475966E+03    0.95616E-01   -0.98312E-01   512   0.246E+00 0.000E+00
DMP:   2    -0.875779897124E+03   -0.66421E-01   -0.38056E-01   512   0.622E-01 0.863E-01
DMP:   3    -0.875803372574E+03   -0.23475E-01   -0.13115E-01   512   0.243E-01 0.223E-01
DMP:   4    -0.875811109654E+03   -0.77371E-02   -0.37647E-02   512   0.717E-02 0.587E-02
DMP:   5    -0.875813045255E+03   -0.19356E-02   -0.12105E-02   512   0.291E-02 0.291E-03
DMP:   6    -0.875813718520E+03   -0.67326E-03   -0.55717E-03   512   0.127E-02 0.330E-03
DMP:   7    -0.875814052173E+03   -0.33365E-03   -0.23874E-03   512   0.492E-03 0.276E-03
DMP:   8    -0.875814196872E+03   -0.14470E-03   -0.90047E-04   512   0.177E-03 0.125E-03
DMP:   9    -0.875814252067E+03   -0.55195E-04   -0.39085E-04   512   0.787E-04 0.498E-04
  21 F= -.89942274E+03 E0= -.89942274E+03  d E =-.793165E-02  mag=     1.0000
       N       E                     dE             d eps       ncg     rms          ort
SDA:   1    -0.875412245878E+03    0.40195E+00   -0.40070E+00   512   0.100E+01 0.000E+00
DMP:   2    -0.875681295174E+03   -0.26905E+00   -0.15364E+00   512   0.253E+00 0.344E+00
DMP:   3    -0.875775383411E+03   -0.94088E-01   -0.54267E-01   512   0.103E+00 0.864E-01
DMP:   4    -0.875807114452E+03   -0.31731E-01   -0.15397E-01   512   0.297E-01 0.229E-01
DMP:   5    -0.875814904094E+03   -0.77896E-02   -0.48296E-02   512   0.119E-01 0.533E-03
DMP:   6    -0.875817569862E+03   -0.26658E-02   -0.22549E-02   512   0.517E-02 0.122E-02
DMP:   7    -0.875818928957E+03   -0.13591E-02   -0.99672E-03   512   0.205E-02 0.116E-02
DMP:   8    -0.875819518965E+03   -0.59001E-03   -0.36039E-03   512   0.725E-03 0.460E-03
DMP:   9    -0.875819731394E+03   -0.21243E-03   -0.15741E-03   512   0.334E-03 0.155E-03
DMP:  10    -0.875819820714E+03   -0.89320E-04   -0.58179E-04   512   0.122E-03 0.601E-04
  22 F= -.89942681E+03 E0= -.89942681E+03  d E =-.119940E-01  mag=     1.0000
       N       E                     dE             d eps       ncg     rms          ort
SDA:   1    -0.875808494621E+03    0.11237E-01   -0.13406E-01   512   0.335E-01 0.000E+00
DMP:   2    -0.875817498673E+03   -0.90041E-02   -0.49176E-02   512   0.790E-02 0.115E-01
DMP:   3    -0.875820563289E+03   -0.30646E-02   -0.17048E-02   512   0.310E-02 0.305E-02
DMP:   4    -0.875821548295E+03   -0.98501E-03   -0.43948E-03   512   0.846E-03 0.661E-03
DMP:   5    -0.875821768325E+03   -0.22003E-03   -0.15758E-03   512   0.395E-03-0.350E-05
DMP:   6    -0.875821855511E+03   -0.87187E-04   -0.73707E-04   512   0.168E-03 0.429E-04
  23 F= -.89942870E+03 E0= -.89942870E+03  d E =-.189003E-02  mag=     1.0000
       N       E                     dE             d eps       ncg     rms          ort
SDA:   1    -0.875707074659E+03    0.11469E+00   -0.11802E+00   512   0.295E+00 0.000E+00
DMP:   2    -0.875786254016E+03   -0.79179E-01   -0.43995E-01   512   0.715E-01 0.101E+00
DMP:   3    -0.875813443182E+03   -0.27189E-01   -0.14852E-01   512   0.272E-01 0.260E-01
DMP:   4    -0.875822034453E+03   -0.85913E-02   -0.40830E-02   512   0.799E-02 0.580E-02
DMP:   5    -0.875824111773E+03   -0.20773E-02   -0.13759E-02   512   0.336E-02 0.196E-03
DMP:   6    -0.875824860552E+03   -0.74878E-03   -0.62580E-03   512   0.145E-02 0.297E-03
DMP:   7    -0.875825238190E+03   -0.37764E-03   -0.28926E-03   512   0.599E-03 0.325E-03
DMP:   8    -0.875825416766E+03   -0.17858E-03   -0.11081E-03   512   0.213E-03 0.169E-03
DMP:   9    -0.875825485418E+03   -0.68652E-04   -0.46452E-04   512   0.913E-04 0.651E-04
  24 F= -.89943190E+03 E0= -.89943190E+03  d E =-.508828E-02  mag=     1.0000
       N       E                     dE             d eps       ncg     rms          ort
SDA:   1    -0.875816430530E+03    0.89862E-02   -0.92852E-02   512   0.232E-01 0.000E+00
DMP:   2    -0.875822675888E+03   -0.62454E-02   -0.35170E-02   512   0.573E-02 0.801E-02
DMP:   3    -0.875824872320E+03   -0.21964E-02   -0.11870E-02   512   0.213E-02 0.219E-02
DMP:   4    -0.875825556175E+03   -0.68385E-03   -0.30788E-03   512   0.599E-03 0.448E-03
DMP:   5    -0.875825710177E+03   -0.15400E-03   -0.11330E-03   512   0.282E-03 0.302E-05
DMP:   6    -0.875825774045E+03   -0.63868E-04   -0.51784E-04   512   0.116E-03 0.353E-04
  25 F= -.89943206E+03 E0= -.89943206E+03  d E =-.525649E-02  mag=     1.0000
       N       E                     dE             d eps       ncg     rms          ort
SDA:   1    -0.875788489570E+03    0.37221E-01   -0.36723E-01   512   0.918E-01 0.000E+00
DMP:   2    -0.875813161050E+03   -0.24671E-01   -0.13717E-01   512   0.222E-01 0.315E-01
