MA-Pb-I  Phonons/2015_MAPbI3/MAPbI3-Cubi
   1.00000000000000     
    17.4822735334851167    0.0345586626266937   -0.0394313741525757
    -0.1062790090636946   17.4823886284281187    0.0402354069942377
     0.1653782287749374   -0.1647134341431565   12.8346033385324301
   C    N    H    Pb   I    Cs
    14    14    84    16    49     2
Direct
  0.2266404628796334  0.0259852508712212  0.2310207375014586
  0.7193513670274035  0.5172817925577475  0.2243846442197252
  0.7444223879924246  0.5397059630143427  0.7348203738206591
  0.9811405127599165  0.7917732617293651  0.7090742324020110
  0.2086430110092671  0.0444206858275716  0.7377814830922216
  0.4761973046441942  0.2753056989453615  0.2049775078863175
  0.9535865689154682  0.2665861301506107  0.2801713582197251
  0.0117351627688072  0.3219816502548704  0.7362691738366058
  0.2169744944659326  0.5356748618308588  0.2389967444943583
  0.2172367763319377  0.5358853651444458  0.7450139619472304
  0.4740593437404602  0.7792640352192737  0.2049202086145414
  0.4760382381848108  0.7743034359417660  0.7082472191213405
  0.6953714932928335  0.0225458651197293  0.2470396007663361
  0.7092382541264295  0.0132726120134934  0.7255914626120212
  0.2776245334715727  0.9707836592098964  0.2834112893114650
  0.7781330706296207  0.4618404740839628  0.2590851435602810
  0.7860856534336463  0.4716018455809743  0.7732494755797469
  0.0249206288801136  0.7420011204463451  0.7800837487513165
  0.2544767287190786  0.9739507444413730  0.7531445591421806
  0.5150547171360884  0.2323577471432903  0.2887657154139983
  0.0123009905368412  0.2209260802737402  0.2224813735232307
  0.0034019453469161  0.2372864472932533  0.7324630849062391
  0.2707842080609243  0.4761772131958944  0.2761799530523321
  0.2722909028022913  0.4760607927445610  0.7768630997801342
  0.5157923419147934  0.7361585475593789  0.2860723997219839
  0.5290258710751621  0.7291490586919639  0.7732638819658784
  0.7703068370306400  0.9827922138859180  0.2539350159164024
  0.7716043248531458  0.9738362201770778  0.7820091053173884
  0.2364837211994221  0.0222803476983285  0.1467207149311296
  0.7113726759114761  0.5100570242724751  0.1404075926781291
  0.7621739526543850  0.5501905371493315  0.6539626513820074
  0.9966672146371091  0.7769050351011316  0.6285595423834233
  0.2219476726422679  0.0672759786336459  0.6605635990080201
  0.4975927801014631  0.2545632899552138  0.1292779859181925
  0.8966695667792492  0.2484387652657793  0.2545974457400769
  0.9819239172950348  0.3458878245484096  0.6694821854582569
  0.2204866916512520  0.5379966954011789  0.1539588647727591
  0.2246008345019835  0.5463532206929209  0.6615728044296603
  0.4944817857740394  0.7599488541560245  0.1281796861612742
  0.4881300880313570  0.7608903406190747  0.6262726989279863
  0.6667319735157009  0.0028363860701759  0.1760961638626114
  0.7181940851058179  0.0052186702255462  0.6416409543377719
  0.2401348040632920  0.0837253122829830  0.2596786921296358
  0.7394779306839427  0.5752871591121062  0.2423238660623743
  0.7592271525577501  0.5887022457267075  0.7844339215941484
  0.9954990281453938  0.8516810508465072  0.7258758704780295
  0.2238210054689498  0.0857782469457329  0.7987663028024167
  0.4890211857463739  0.3363898328768336  0.2149475833835377
  0.9626892600771958  0.3272732441969921  0.2632340608213386
  0.0726378027862198  0.3367128839427682  0.7330625575753721
  0.2336955691480311  0.5907729260063275  0.2733540118748123
  0.2293736447272161  0.5880659631730001  0.7899111252178475
  0.4855656891322875  0.8404908309928479  0.2158563613580283
  0.4852505418536817  0.8352981144654076  0.7240118298601028
  0.7060893750459619  0.0843255381928985  0.2440810863511989
  0.7110695267505716  0.0742230872112846  0.7460355989644315
  0.1670894131585024  0.0112643123790980  0.2497770827543873
  0.6658201666336395  0.5054742851752145  0.2665160443405743
  0.6828445973265763  0.5278960412337030  0.7390058759811272
  0.9198422637654536  0.7821514353353215  0.7224289837410653
  0.1478798621664487  0.0292875110168708  0.7436575589196008
  0.4143440763003681  0.2656014724089431  0.2115839988628428
  0.9598833302950962  0.2562173840851242  0.3635938568457230
  0.9858160215914693  0.3428979429244265  0.8092215576314017
  0.1589602124024020  0.5201073133125080  0.2642263100103059
  0.1591125440151301  0.5156313214658116  0.7619415016278638
  0.4126535007916032  0.7678845949955145  0.2137950818242743
  0.4170646316715429  0.7585067307123532  0.7284678554454281
  0.6612465914236215  0.0082106767567047  0.3161814683160535
  0.6543919269483220  0.9881473781288188  0.7496311148562127
  0.3351218485942645  0.9829158123186745  0.2684646110688924
  0.8311594416250189  0.4716803945812100  0.2240251937461550
  0.8449565047222817  0.4818768069058518  0.7726478700103201
  0.0839933104344931  0.7486243013613494  0.7693047298843785
  0.3132342384768328  0.9846648089833443  0.7504545224200634
  0.5743428646766424  0.2397926441728321  0.2843269892653704
  0.0092655537156019  0.2276845789852319  0.1422285150761968
  0.0274811578437841  0.2140795274702124  0.6642866841604972
  0.3273794177160603  0.4891529715934815  0.2565398574173673
  0.3288644861112729  0.4925236679695087  0.7625236463282200
  0.5746035189714483  0.7453576818724139  0.2806037369753277
  0.5861865805530001  0.7409264303048014  0.7558601720277123
  0.8042657825271626 -0.0036151324804186  0.1895408306881000
  0.8258895211564952  0.9923941522381458  0.7583009720787863
  0.2663000251726325  0.9143351587115015  0.2602666914337790
  0.7619072036083240  0.4052895830224734  0.2435139582549828
  0.7748210538781292  0.4240274646351235  0.7268217077536816
  0.0123934146389393  0.6842044478520207  0.7679028190651792
  0.2417374208362665  0.9330732093670439  0.6966499415638661
  0.5039693378700670  0.1737976117795444  0.2825897471696759
  0.0063422793637467  0.1623045142076540  0.2361158300217986
  0.9455337171308470  0.2217133810917671  0.7347241956660945
  0.2573834182083843  0.4221245021661378  0.2466053466169511
  0.2622826632931651  0.4238421786286818  0.7396791937853521
  0.5065274287437130  0.6774464435305243  0.2787864108992859
  0.5204569086042369  0.6705260259355730  0.7615307844816547
  0.7632738965011124  0.9236877138471973  0.2567148975450219
  0.7685038051146401  0.9147821078155084  0.7705454684416996
  0.2693249304069602  0.9730829886897185  0.3635804990590131
  0.7869285147704660  0.4663331240888209  0.3388183425656824
  0.7681787657879994  0.4581702456679261  0.8484967379984877
  0.0127025476751381  0.7540347622064218  0.8578222825942979
  0.2407365021663581  0.9500617952119580  0.8252052197504398
  0.4971514378946320  0.2507938086035607  0.3621415082979878
  0.0677377529529785  0.2362142014529111  0.2433844374169873
  0.0293848792339534  0.2120282523173698  0.7963519029012633
  0.2674265752896080  0.4726678835487084  0.3568446025996360
  0.2666152598345790  0.4658193612039604  0.8562349047519011
  0.4980501013873879  0.7529261273716218  0.3603518520696278
  0.5213955694721336  0.7395424135594493  0.8523773968543489
  0.7992505445520375  0.0011712946079387  0.3203716032435744
  0.7673346573723120  0.9842783529195480  0.8617396895057552
  0.2325726918708176  0.7602657395572002  0.4871494823400528
  0.7357003537989552  0.2529883771126221  0.5327094262376481
  0.7409754327946326  0.2490151325968557  0.9923656534083461
  0.9876577247634051  0.5149024117654484  0.4934657449386947
  0.9904652447245953  0.5059180469286269  0.9965479500524663
  0.2412063872370636  0.7603643980095763  0.9912879021739552
  0.4815136874589868  0.0045875095432984  0.4912832891974188
  0.4866588460761674  0.0112275447209868  0.9860753944687233
  0.9874320560415575  0.0112507700407233  0.4868877535662456
  0.9878434507420979  0.0086333748100135  0.9857327836550110
  0.2323977463327525  0.2647129980984324  0.4854340246433362
  0.2352680353270123  0.2611404786391068  0.9858733063258128
  0.4817193830804383  0.5092315382013157  0.4880772342876938
  0.4883397095927612  0.5089100172649793  0.9858485476185816
  0.7383965184852634  0.7590674051084628  0.4915661521277956
  0.7416273878207664  0.7589358196076870  0.9929194203297265
  0.2225547072742218  0.7747787726930847  0.2380010597079438
  0.7195269180451066  0.2600826953004036  0.2371632402908772
  0.8019860995602273  0.2173669495449715  0.7518973477251614
  0.9857934216315620  0.4992224870861922  0.2433707705661527
  0.9793981216382815  0.5378014958477633  0.7444838749507671
  0.2300473064477238  0.7618615037105670  0.7381291323744165
  0.4766833904083624  0.0288890422452989  0.2362374708028980
  0.4629808080740576  0.0027854417379606  0.7354869134683264
  0.9953900180971760  0.0122799057459695  0.2355084813949145
  0.9697057162323270  0.0234522161723484  0.7361103433164097
  0.2206303947332116  0.2712389929203805  0.2355649200265659
  0.2326827885580708  0.2714906645004685  0.7347162795106339
  0.4761350603386080  0.5250958940994416  0.2416424465694040
  0.4723363924803449  0.5291677315458246  0.7420245084474130
  0.7251705395434800  0.7750638277311575  0.2410907331726889
  0.7395642850637926  0.7671753347153347  0.7413262980375046
  0.3933160858293466  0.8543941913412894  0.9714013685679432
  0.8942167653193516  0.3498400729300327  0.0082213331871831
  0.8640481332700770  0.3789132813709765  0.5087804534506994
  0.0882949991245827  0.6583898975498913  0.0102710881997006
  0.0753938325760478  0.6705316929994979  0.4850594329908511
  0.3902998917996401  0.8486325012331501  0.4622115637704178
  0.5841311852012204  0.1630964872363712  0.9560702433928261
  0.5877947749324594  0.1492977404070705  0.5174304548638766
  0.0769289347239101  0.1694163827035974  0.9710014942234880
  0.0771950049087677  0.1707032036912717  0.4893387791715260
  0.3888751626320249  0.3579676640783179  0.9732112382362998
  0.3941049320539916  0.3484606839212306  0.4783520343276261
  0.5941634983954378  0.6553267851126648  0.0087029598109144
  0.5942902319775240  0.6497223505981100  0.5083499585633030
  0.9039244792743065  0.8464111438350423  0.9850944049500675
  0.8859486472362337  0.8629631205188488  0.4675350010156095
  0.1516193289434740  0.9236923067340966  0.5063990507043488
  0.6220877764077178  0.3952329045795214  0.4322421033459095
  0.6489887298025598  0.4074377308419206  0.9651750473552024
  0.8350430739336354  0.6085900617399039  0.4513675041176406
  0.8359251552725230  0.6028693288280317  0.0089706932857636
  0.1453835646214265  0.9162500898010234  0.9738324085998198
  0.3293621841001870  0.1087951616641945  0.4877820878796593
  0.3320491389738594  0.1073202498346005  0.9761243542099789
  0.8333749890560361  0.1046307545381337  0.4601751407674647
  0.8221693295144376  0.0826365296547170  0.0212724988947100
  0.1489316568829772  0.4259406009514244  0.4993129700926792
  0.3292825828981198  0.6044418699441820  0.4873134131131832
  0.3364012464445874  0.6045506108935393  0.9957027134383871
  0.6276438648960890  0.9012020715426893  0.4873486603233840
  0.6386856957779317  0.9090107177257558  0.9805498331825552
  0.1510914628260128  0.4214748116873588  0.9887497095853544
  0.6280364127166124  0.3606381979906132  0.6838673246829076
  0.9651664886674350  0.7341652414861555  0.2394890553311614
  0.4499733557877534  0.2265947636656803  0.7338840124651095
 
  0.00000000E+00  0.00000000E+00  0.00000000E+00
  0.00000000E+00  0.00000000E+00  0.00000000E+00
  0.00000000E+00  0.00000000E+00  0.00000000E+00
  0.00000000E+00  0.00000000E+00  0.00000000E+00
  0.00000000E+00  0.00000000E+00  0.00000000E+00
  0.00000000E+00  0.00000000E+00  0.00000000E+00
  0.00000000E+00  0.00000000E+00  0.00000000E+00
  0.00000000E+00  0.00000000E+00  0.00000000E+00
  0.00000000E+00  0.00000000E+00  0.00000000E+00
  0.00000000E+00  0.00000000E+00  0.00000000E+00
  0.00000000E+00  0.00000000E+00  0.00000000E+00
  0.00000000E+00  0.00000000E+00  0.00000000E+00
  0.00000000E+00  0.00000000E+00  0.00000000E+00
  0.00000000E+00  0.00000000E+00  0.00000000E+00
  0.00000000E+00  0.00000000E+00  0.00000000E+00
  0.00000000E+00  0.00000000E+00  0.00000000E+00
  0.00000000E+00  0.00000000E+00  0.00000000E+00
  0.00000000E+00  0.00000000E+00  0.00000000E+00
  0.00000000E+00  0.00000000E+00  0.00000000E+00
  0.00000000E+00  0.00000000E+00  0.00000000E+00
  0.00000000E+00  0.00000000E+00  0.00000000E+00
  0.00000000E+00  0.00000000E+00  0.00000000E+00
  0.00000000E+00  0.00000000E+00  0.00000000E+00
  0.00000000E+00  0.00000000E+00  0.00000000E+00
  0.00000000E+00  0.00000000E+00  0.00000000E+00
  0.00000000E+00  0.00000000E+00  0.00000000E+00
  0.00000000E+00  0.00000000E+00  0.00000000E+00
  0.00000000E+00  0.00000000E+00  0.00000000E+00
  0.00000000E+00  0.00000000E+00  0.00000000E+00
  0.00000000E+00  0.00000000E+00  0.00000000E+00
  0.00000000E+00  0.00000000E+00  0.00000000E+00
  0.00000000E+00  0.00000000E+00  0.00000000E+00
  0.00000000E+00  0.00000000E+00  0.00000000E+00
  0.00000000E+00  0.00000000E+00  0.00000000E+00
  0.00000000E+00  0.00000000E+00  0.00000000E+00
  0.00000000E+00  0.00000000E+00  0.00000000E+00
  0.00000000E+00  0.00000000E+00  0.00000000E+00
  0.00000000E+00  0.00000000E+00  0.00000000E+00
  0.00000000E+00  0.00000000E+00  0.00000000E+00
  0.00000000E+00  0.00000000E+00  0.00000000E+00
  0.00000000E+00  0.00000000E+00  0.00000000E+00
  0.00000000E+00  0.00000000E+00  0.00000000E+00
  0.00000000E+00  0.00000000E+00  0.00000000E+00
  0.00000000E+00  0.00000000E+00  0.00000000E+00
  0.00000000E+00  0.00000000E+00  0.00000000E+00
  0.00000000E+00  0.00000000E+00  0.00000000E+00
  0.00000000E+00  0.00000000E+00  0.00000000E+00
  0.00000000E+00  0.00000000E+00  0.00000000E+00
  0.00000000E+00  0.00000000E+00  0.00000000E+00
  0.00000000E+00  0.00000000E+00  0.00000000E+00
  0.00000000E+00  0.00000000E+00  0.00000000E+00
  0.00000000E+00  0.00000000E+00  0.00000000E+00
  0.00000000E+00  0.00000000E+00  0.00000000E+00
  0.00000000E+00  0.00000000E+00  0.00000000E+00
  0.00000000E+00  0.00000000E+00  0.00000000E+00
  0.00000000E+00  0.00000000E+00  0.00000000E+00
  0.00000000E+00  0.00000000E+00  0.00000000E+00
  0.00000000E+00  0.00000000E+00  0.00000000E+00
  0.00000000E+00  0.00000000E+00  0.00000000E+00
  0.00000000E+00  0.00000000E+00  0.00000000E+00
  0.00000000E+00  0.00000000E+00  0.00000000E+00
  0.00000000E+00  0.00000000E+00  0.00000000E+00
  0.00000000E+00  0.00000000E+00  0.00000000E+00
  0.00000000E+00  0.00000000E+00  0.00000000E+00
  0.00000000E+00  0.00000000E+00  0.00000000E+00
  0.00000000E+00  0.00000000E+00  0.00000000E+00
  0.00000000E+00  0.00000000E+00  0.00000000E+00
  0.00000000E+00  0.00000000E+00  0.00000000E+00
  0.00000000E+00  0.00000000E+00  0.00000000E+00
  0.00000000E+00  0.00000000E+00  0.00000000E+00
  0.00000000E+00  0.00000000E+00  0.00000000E+00
  0.00000000E+00  0.00000000E+00  0.00000000E+00
  0.00000000E+00  0.00000000E+00  0.00000000E+00
  0.00000000E+00  0.00000000E+00  0.00000000E+00
  0.00000000E+00  0.00000000E+00  0.00000000E+00
  0.00000000E+00  0.00000000E+00  0.00000000E+00
  0.00000000E+00  0.00000000E+00  0.00000000E+00
  0.00000000E+00  0.00000000E+00  0.00000000E+00
  0.00000000E+00  0.00000000E+00  0.00000000E+00
  0.00000000E+00  0.00000000E+00  0.00000000E+00
  0.00000000E+00  0.00000000E+00  0.00000000E+00
  0.00000000E+00  0.00000000E+00  0.00000000E+00
  0.00000000E+00  0.00000000E+00  0.00000000E+00
  0.00000000E+00  0.00000000E+00  0.00000000E+00
  0.00000000E+00  0.00000000E+00  0.00000000E+00
  0.00000000E+00  0.00000000E+00  0.00000000E+00
  0.00000000E+00  0.00000000E+00  0.00000000E+00
  0.00000000E+00  0.00000000E+00  0.00000000E+00
  0.00000000E+00  0.00000000E+00  0.00000000E+00
  0.00000000E+00  0.00000000E+00  0.00000000E+00
  0.00000000E+00  0.00000000E+00  0.00000000E+00
  0.00000000E+00  0.00000000E+00  0.00000000E+00
  0.00000000E+00  0.00000000E+00  0.00000000E+00
  0.00000000E+00  0.00000000E+00  0.00000000E+00
  0.00000000E+00  0.00000000E+00  0.00000000E+00
  0.00000000E+00  0.00000000E+00  0.00000000E+00
  0.00000000E+00  0.00000000E+00  0.00000000E+00
  0.00000000E+00  0.00000000E+00  0.00000000E+00
  0.00000000E+00  0.00000000E+00  0.00000000E+00
  0.00000000E+00  0.00000000E+00  0.00000000E+00
  0.00000000E+00  0.00000000E+00  0.00000000E+00
  0.00000000E+00  0.00000000E+00  0.00000000E+00
  0.00000000E+00  0.00000000E+00  0.00000000E+00
  0.00000000E+00  0.00000000E+00  0.00000000E+00
  0.00000000E+00  0.00000000E+00  0.00000000E+00
  0.00000000E+00  0.00000000E+00  0.00000000E+00
  0.00000000E+00  0.00000000E+00  0.00000000E+00
  0.00000000E+00  0.00000000E+00  0.00000000E+00
  0.00000000E+00  0.00000000E+00  0.00000000E+00
  0.00000000E+00  0.00000000E+00  0.00000000E+00
  0.00000000E+00  0.00000000E+00  0.00000000E+00
  0.00000000E+00  0.00000000E+00  0.00000000E+00
  0.00000000E+00  0.00000000E+00  0.00000000E+00
  0.00000000E+00  0.00000000E+00  0.00000000E+00
  0.00000000E+00  0.00000000E+00  0.00000000E+00
  0.00000000E+00  0.00000000E+00  0.00000000E+00
  0.00000000E+00  0.00000000E+00  0.00000000E+00
  0.00000000E+00  0.00000000E+00  0.00000000E+00
  0.00000000E+00  0.00000000E+00  0.00000000E+00
  0.00000000E+00  0.00000000E+00  0.00000000E+00
  0.00000000E+00  0.00000000E+00  0.00000000E+00
  0.00000000E+00  0.00000000E+00  0.00000000E+00
  0.00000000E+00  0.00000000E+00  0.00000000E+00
  0.00000000E+00  0.00000000E+00  0.00000000E+00
  0.00000000E+00  0.00000000E+00  0.00000000E+00
  0.00000000E+00  0.00000000E+00  0.00000000E+00
  0.00000000E+00  0.00000000E+00  0.00000000E+00
  0.00000000E+00  0.00000000E+00  0.00000000E+00
  0.00000000E+00  0.00000000E+00  0.00000000E+00
  0.00000000E+00  0.00000000E+00  0.00000000E+00
  0.00000000E+00  0.00000000E+00  0.00000000E+00
  0.00000000E+00  0.00000000E+00  0.00000000E+00
  0.00000000E+00  0.00000000E+00  0.00000000E+00
  0.00000000E+00  0.00000000E+00  0.00000000E+00
  0.00000000E+00  0.00000000E+00  0.00000000E+00
  0.00000000E+00  0.00000000E+00  0.00000000E+00
  0.00000000E+00  0.00000000E+00  0.00000000E+00
  0.00000000E+00  0.00000000E+00  0.00000000E+00
  0.00000000E+00  0.00000000E+00  0.00000000E+00
  0.00000000E+00  0.00000000E+00  0.00000000E+00
  0.00000000E+00  0.00000000E+00  0.00000000E+00
  0.00000000E+00  0.00000000E+00  0.00000000E+00
  0.00000000E+00  0.00000000E+00  0.00000000E+00
  0.00000000E+00  0.00000000E+00  0.00000000E+00
  0.00000000E+00  0.00000000E+00  0.00000000E+00
  0.00000000E+00  0.00000000E+00  0.00000000E+00
  0.00000000E+00  0.00000000E+00  0.00000000E+00
  0.00000000E+00  0.00000000E+00  0.00000000E+00
  0.00000000E+00  0.00000000E+00  0.00000000E+00
  0.00000000E+00  0.00000000E+00  0.00000000E+00
  0.00000000E+00  0.00000000E+00  0.00000000E+00
  0.00000000E+00  0.00000000E+00  0.00000000E+00
  0.00000000E+00  0.00000000E+00  0.00000000E+00
  0.00000000E+00  0.00000000E+00  0.00000000E+00
  0.00000000E+00  0.00000000E+00  0.00000000E+00
  0.00000000E+00  0.00000000E+00  0.00000000E+00
  0.00000000E+00  0.00000000E+00  0.00000000E+00
  0.00000000E+00  0.00000000E+00  0.00000000E+00
  0.00000000E+00  0.00000000E+00  0.00000000E+00
  0.00000000E+00  0.00000000E+00  0.00000000E+00
  0.00000000E+00  0.00000000E+00  0.00000000E+00
  0.00000000E+00  0.00000000E+00  0.00000000E+00
  0.00000000E+00  0.00000000E+00  0.00000000E+00
  0.00000000E+00  0.00000000E+00  0.00000000E+00
  0.00000000E+00  0.00000000E+00  0.00000000E+00
  0.00000000E+00  0.00000000E+00  0.00000000E+00
  0.00000000E+00  0.00000000E+00  0.00000000E+00
  0.00000000E+00  0.00000000E+00  0.00000000E+00
  0.00000000E+00  0.00000000E+00  0.00000000E+00
  0.00000000E+00  0.00000000E+00  0.00000000E+00
  0.00000000E+00  0.00000000E+00  0.00000000E+00
  0.00000000E+00  0.00000000E+00  0.00000000E+00
  0.00000000E+00  0.00000000E+00  0.00000000E+00
  0.00000000E+00  0.00000000E+00  0.00000000E+00
  0.00000000E+00  0.00000000E+00  0.00000000E+00
  0.00000000E+00  0.00000000E+00  0.00000000E+00
  0.00000000E+00  0.00000000E+00  0.00000000E+00
  0.00000000E+00  0.00000000E+00  0.00000000E+00
  0.00000000E+00  0.00000000E+00  0.00000000E+00
